34 34
21
3 3 0 31
3 4 31 16
3 5 31 0
3 6 0 10
3 7 0 24
3 8 0 16
3 9 21 25
3 10 0 0
3 11 31 5
3 12 3 22
3 13 24 21
3 14 31 20
3 21 24 0
3 22 3 0
3 25 21 0
3 34 18 0
4 4 27 25
4 5 27 29
4 11 27 0
4 14 27 11
12 34 6 0
